HUN,8,6,31
4,29,3,17,0,5,2,25,5,28,1,9
4,15,1,10,0,13,2,13,3,12,5,8
4,28,0,2,1,3,5,7,2,19,3,17
0,4,5,25,4,10,1,16,2,28,3,5
4,13,1,8,5,19,0,17,2,21,3,3
4,11,3,8,0,11,5,19,2,12,1,9
2,3,0,5,1,15,4,8,5,26,3,13
2,6,5,21,3,23,0,10,4,21,1,18
